100 5
25 200
10
7
13
19
26
3
5
9
16
16
12
19
23
20
8
19
2
12
17
9
11
18
29
3
6
17
16
16
9
21
27
23
11
14
8
5
8
16
31
9
5
5
7
18
16
1
27
36
30
13
10
9
14
18
2
6
7
18
28
3
13
19
10
9
20
25
25
36
6
5
15
25
9
8
18
13
14
3
23
6
26
16
11
7
41
35
26
9
15
3
1
2
22
27
20
11
12
10
9
17
35 35 0 230 0 0
41 49 0 204 10 3
35 17 0 202 10 3
55 45 0 197 10 3
55 20 149 159 10 3
15 30 0 199 10 3
25 30 99 109 10 1
20 50 0 198 10 1
10 43 95 105 10 1
55 60 97 107 10 2
30 60 124 134 10 3
20 65 67 77 10 3
50 35 0 205 10 2
30 25 159 169 10 3
15 10 0 187 10 3
30 5 61 71 10 3
10 20 0 190 10 3
5 30 157 167 10 2
20 40 0 204 10 3
15 60 0 187 10 3
45 65 0 188 10 3
45 20 0 201 10 1
45 10 97 107 10 3
55 5 68 78 10 3
65 35 0 190 10 1
65 20 172 182 10 1
45 30 0 208 10 2
35 40 37 47 10 2
41 37 0 213 10 2
64 42 0 190 10 3
40 60 71 81 10 3
31 52 0 202 10 3
35 69 0 186 10 3
53 52 37 47 10 2
65 55 0 183 10 1
63 65 143 153 10 3
2 60 41 51 10 2
20 20 0 198 10 1
5 5 83 93 10 2
60 12 44 54 10 3
40 25 85 95 10 3
42 7 97 107 10 1
24 12 31 41 10 1
23 3 0 185 10 3
11 14 69 79 10 1
6 38 32 42 10 2
2 48 0 184 10 2
8 56 0 185 10 1
13 52 0 192 10 3
6 68 108 118 10 2
47 47 0 203 10 2
49 58 0 193 10 3
27 43 0 208 10 2
37 31 95 105 10 1
57 29 0 197 10 3
63 23 136 146 10 1
53 12 130 140 10 1
32 12 0 196 10 2
36 26 200 210 10 3
21 24 0 202 10 3
17 34 0 201 10 3
12 24 0 194 10 2
24 58 58 68 10 3
27 69 0 185 10 2
15 77 73 83 10 3
62 77 51 61 10 1
49 73 127 137 10 1
67 5 83 93 10 1
56 39 142 152 10 2
37 47 50 60 10 1
37 56 182 192 10 1
57 68 0 180 10 2
47 16 0 197 10 1
44 17 0 199 10 1
46 13 149 159 10 1
49 11 0 192 10 1
49 42 73 83 10 1
53 43 179 189 10 1
61 52 96 106 10 3
57 48 92 102 10 2
56 37 182 192 10 3
55 54 0 192 10 1
15 47 0 196 10 2
14 37 0 198 10 2
11 31 101 111 10 2
16 22 0 196 10 3
4 18 0 184 10 1
28 18 93 103 10 1
26 52 74 84 10 2
26 35 0 211 10 2
31 67 0 187 10 3
15 19 0 194 10 3
22 22 18 28 10 1
18 24 188 198 10 1
26 27 0 207 10 1
25 24 0 205 10 1
22 27 0 204 10 1
25 21 0 202 10 1
19 21 0 198 10 1
20 26 83 93 10 1
18 18 185 195 10 1
31 67 0 230 5 4
35 49 0 230 5 4
50 36 0 230 5 4
22 66 0 230 5 4
51 58 0 230 5 4
0 1 0 0 0
0 0 1 0 0
0 0 1 0 0
0 0 1 0 0
0 1 0 0 0
0 0 0 0 0
0 0 0 0 0
0 0 0 0 0
0 0 0 0 1
1 0 0 0 0
0 0 0 1 0
0 0 1 0 0
0 0 1 0 0
0 0 1 0 0
0 0 1 0 0
0 1 0 0 0
0 1 0 0 0
0 1 0 0 0
0 0 0 1 0
0 0 0 0 1
0 0 0 0 0
0 0 1 0 0
0 0 1 0 0
0 0 0 0 0
0 0 0 0 0
0 0 1 0 0
0 1 0 0 0
0 0 1 0 0
0 0 1 0 0
0 0 0 0 1
0 1 0 0 0
1 0 0 0 0
0 0 0 0 1
0 0 0 0 0
0 0 0 0 1
0 0 0 1 0
0 0 0 0 0
0 1 0 0 0
0 0 1 0 0
0 0 1 0 0
0 0 0 0 0
0 0 0 0 0
0 0 1 0 0
0 0 0 0 0
0 1 0 0 0
0 0 0 1 0
0 0 0 0 0
0 0 0 1 0
0 0 0 1 0
0 0 1 0 0
0 0 0 0 1
0 1 0 0 0
0 0 0 0 0
0 0 1 0 0
0 0 0 0 0
0 0 0 0 0
0 0 1 0 0
0 0 1 0 0
0 1 0 0 0
0 1 0 0 0
0 1 0 0 0
0 0 0 1 0
1 0 0 0 0
0 0 0 1 0
0 0 0 0 0
0 0 0 0 0
0 0 0 0 0
0 0 1 0 0
0 0 0 0 0
0 0 0 0 0
0 0 0 0 1
0 0 0 0 0
0 0 0 0 0
0 0 0 0 0
0 0 0 0 0
0 0 0 0 0
0 0 0 0 0
0 0 0 0 1
0 0 0 0 1
0 0 0 0 0
0 0 0 0 0
0 1 0 0 0
0 1 0 0 0
0 1 0 0 0
0 1 0 0 0
0 0 0 0 0
0 0 0 0 0
0 1 0 0 0
0 1 0 0 0
1 0 0 0 0
0 1 0 0 0
0 0 0 0 0
0 0 0 0 0
0 0 0 0 0
0 0 0 0 0
0 0 0 0 0
0 0 0 0 0
0 0 0 0 0
0 0 0 0 0
0 0 0 0 0
